
set I:= 2	3	4 5 6	7 	8	9	10	11 12 13	14	15 16	17	18	19	20 21 22 
23 24 25 26 27 28 29 30 31 32 33 34 35 36 37 38 39 40 41 42 43 44 45 46 47 48 49 50 51
52 53 54 55 56 57 58 59 60 61 62 63 64 65 66 67 68 69  ;

set Nodos:= 1 2	3	4 5 6	7 	8	9	10	11 12 13	14	15 16	17	18	19	20 21 22
23 24 25 26 27 28 29 30 31 32 33 34 35 36 37 38 39 40 41 42 43 44 45 46 47 48 49 50 51
52 53 54 55 56 57 58 59 60 61 62 63 64 65 66 67 68 69  ;

set K:= 1 2 3;
set R:= A B C;
set T:= A B C;


param: xcoord	ycoord :=
1	59	44
2	9	23
3	84	68
4	36	93
5	87	9
6	34	16
7	40	98
8	72	43
9	0	60
10	64	90
11	11	8
12	46	7
13	33	54
14	23	84
15	67	18
16	34	93
17	19	25
18	14	9
19	70	64
20	58	50
21	5	78
22	95	39
23	38	54
24	50	73
25	48	46
26	64	4
27	39	28
28	79	30
29	61	36
30	28	50
31	51	91
32	68	59
33	14	9
34	94	87
35	68	29
36	12	91
37	2	22
38	25	16
39	11	57
40	3	51
41	13	52
42	9	76
43	58	18
44	40	39
45	32	89
46	9	92
47	36	14
48	82	13
49	10	25
50	96	97
51	20	21
52	40	91
53	33	31
54	72	74
55	41	24
56	90	20
57	4	44
58	54	22
59	43	59
60	3	70
61	94	16
62	94	54
63	14	40
64	37	0
65	88	55
66	80	25
67	37	64
68	87	47
69	18	68



;

param Q:=
1   20000
2   20000
3   20000
;

param P:=
A   10000
B   15000
C   15000
;


param alfa:=
A   1
B    .70
C    .30
;

param q:  A   B   C:=
1	0	0	0
2	100	0	0
3	0	50	0
4	0	0	300
5	450	0	0
6	0	800	0
7	0	0	250
8	150	0	0
9	0	450	0
10	0	0	600
11	50	0	0
12	0	50	0
13	0	0	900
14	500	0	0
15	0	250	0
16	0	0	250
17	450	0	0
18	0	800	0
19	0	0	600
20	300	0	0
21	0	300	0
22	0	0	1000
23	1150	0	0
24	0	1950	0
25	0	0	850
26	400	0	0
27	0	100	0
28	0	0	650
29	850	0	0
30	0	150	0
31	0	0	100
32	350	0	0
33	0	1150	0
34	0	0	500
35	350	0	0
36	0	600	0
37	0	0	1000
38	650	0	0
39	0	1050	0
40	0	0	1250
41	250	0	0
42	0	200	0
43	0	0	650
44	600	0	0
45	0	1150	0
46	0	0	950
47	500	0	0
48	0	350	0
49	0	0	750
50	250	0	0
51	0	750	0
52	0	0	650
53	1500	0	0
54	0	750	0
55	0	0	350
56	450	0	0
57	0	1150	0
58	0	0	400
59	250	0	0
60	0	400	0
61	0	0	1250
62	600	0	0
63	0	1250	0
64	0	0	1200
65	400	0	0
66	0	1100	0
67	0	0	350
68	1200	0	0
69	0	900	0

;

param a:  A   B   C:=
1	0	0	0
2	1	0	0
3	0	1	0
4	0	0	1
5	1	0	0
6	0	1	0
7	0	0	1
8	1	0	0
9	0	1	0
10	0	0	1
11	1	0	0
12	0	1	0
13	0	0	1
14	1	0	0
15	0	1	0
16	0	0	1
17	1	0	0
18	0	1	0
19	0	0	1
20	1	0	0
21	0	1	0
22	0	0	1
23	1	0	0
24	0	1	0
25	0	0	1
26	1	0	0
27	0	1	0
28	0	0	1
29	1	0	0
30	0	1	0
31	0	0	1
32	1	0	0
33	0	1	0
34	0	0	1
35	1	0	0
36	0	1	0
37	0	0	1
38	1	0	0
39	0	1	0
40	0	0	1
41	1	0	0
42	0	1	0
43	0	0	1
44	1	0	0
45	0	1	0
46	0	0	1
47	1	0	0
48	0	1	0
49	0	0	1
50	1	0	0
51	0	1	0
52	0	0	1
53	1	0	0
54	0	1	0
55	0	0	1
56	1	0	0
57	0	1	0
58	0	0	1
59	1	0	0
60	0	1	0
61	0	0	1
62	1	0	0
63	0	1	0
64	0	0	1
65	1	0	0
66	0	1	0
67	0	0	1
68	1	0	0
69	0	1	0


;

param qu :=
1	0
2	100
3	50
4	300
5	450
6	800
7	250
8	150
9	450
10	600
11	50
12	50
13	900
14	500
15	250
16	250
17	450
18	800
19	600
20	300
21	300
22	1000
23	1150
24	1950
25	850
26	400
27	100
28	650
29	850
30	150
31	100
32	350
33	1150
34	500
35	350
36	600
37	1000
38	650
39	1050
40	1250
41	250
42	200
43	650
44	600
45	1150
46	950
47	500
48	350
49	750
50	250
51	750
52	650
53	1500
54	750
55	350
56	450
57	1150
58	400
59	250
60	400
61	1250
62	600
63	1250
64	1200
65	400
66	1100
67	350
68	1200
69	900


;

set IT:=
(	2	,	A	)
(	3	,	B	)
(	4	,	C	)
(	5	,	A	)
(	6	,	B	)
(	7	,	C	)
(	8	,	A	)
(	9	,	B	)
(	10	,	C	)
(	11	,	A	)
(	12	,	B	)
(	13	,	C	)
(	14	,	A	)
(	15	,	B	)
(	16	,	C	)
(	17	,	A	)
(	18	,	B	)
(	19	,	C	)
(	20	,	A	)
(	21	,	B	)
(	22	,	C	)
(	23	,	A	)
(	24	,	B	)
(	25	,	C	)
(	26	,	A	)
(	27	,	B	)
(	28	,	C	)
(	29	,	A	)
(	30	,	B	)
(	31	,	C	)
(	32	,	A	)
(	33	,	B	)
(	34	,	C	)
(	35	,	A	)
(	36	,	B	)
(	37	,	C	)
(	38	,	A	)
(	39	,	B	)
(	40	,	C	)
(	41	,	A	)
(	42	,	B	)
(	43	,	C	)
(	44	,	A	)
(	45	,	B	)
(	46	,	C	)
(	47	,	A	)
(	48	,	B	)
(	49	,	C	)
(	50	,	A	)
(	51	,	B	)
(	52	,	C	)
(	53	,	A	)
(	54	,	B	)
(	55	,	C	)
(	56	,	A	)
(	57	,	B	)
(	58	,	C	)
(	59	,	A	)
(	60	,	B	)
(	61	,	C	)
(	62	,	A	)
(	63	,	B	)
(	64	,	C	)
(	65	,	A	)
(	66	,	B	)
(	67	,	C	)
(	68	,	A	)
(	69	,	B	)


;